c description: Counting Principle: 4 divided in parts of size 2.
c generator: CNFgen (0.9.2)
c copyright: (C) 2012-2022 Massimo Lauria <massimo.lauria@uniroma1.it>
c url: https://massimolauria.net/cnfgen
c command line: cnfgen --varnames --output count_4M2p.cnf count 4 2
c
c varname 1 p_{1,2}
c varname 2 p_{1,3}
c varname 3 p_{1,4}
c varname 4 p_{2,3}
c varname 5 p_{2,4}
c varname 6 p_{3,4}
c
p cnf 6 16
-1 -2 0
-1 -3 0
-2 -3 0
1 2 3 0
-1 -4 0
-1 -5 0
-4 -5 0
1 4 5 0
-2 -4 0
-2 -6 0
-4 -6 0
2 4 6 0
-3 -5 0
-3 -6 0
-5 -6 0
3 5 6 0
